TYPE : Vertex Cover
DIMENSION: 25
EDGE_DATA_SECTION:
0 1
0 7
0 11
0 18
0 22
0 23
1 6
1 10
1 11
1 12
1 19
2 11
2 12
2 16
2 18
2 22
2 23
3 10
3 12
3 14
3 16
4 6
4 11
4 12
4 17
4 21
4 23
5 9
6 8
6 15
6 22
6 24
7 8
7 10
7 22
7 24
8 9
8 18
9 14
9 20
9 22
9 23
10 14
10 17
10 19
10 22
11 13
11 21
11 23
12 13
12 17
12 19
12 20
13 19
13 20
13 21
14 17
14 23
15 17
15 19
17 23
18 22
19 20
19 24
21 23
21 24
-1
VERTEX_DEGREE:
6.0 6.0 6.0 4.0 6.0 1.0 6.0 5.0 4.0 6.0 7.0 7.0 8.0 5.0 5.0 3.0 2.0 6.0 4.0 7.0 4.0 5.0 7.0 8.0 4.0
VERTEX_COVER:
0 2 3 6 7 9 10 11 12 13 17 18 19 21 23
EOF
